RT is False
Default write of storage_offers_DA.csv just to have a file (but constraint should be inactive)
Reading model...
...model read.
creating competitive generators file...
...competitive generators recorded.
Loading data...
.. day-ahead data with real-time VRE data read.
Compiling instance...
...instance created.
Creating Offer Mitigation (model will solve as dispatch if TRUE)...
NOTE: storage offers will not be mitigated
...storage offer mitigation file created
Converting model to MPEC...
...converted
NOTE: initial MIP solve with only storage competitive to get feasible solution
Solving...

Welcome to IBM(R) ILOG(R) CPLEX(R) Interactive Optimizer 12.9.0.0
  with Simplex, Mixed Integer & Barrier Optimizers
5725-A06 5725-A29 5724-Y48 5724-Y49 5724-Y54 5724-Y55 5655-Y21
Copyright IBM Corp. 1988, 2019.  All Rights Reserved.

Type 'help' for a list of available commands.
Type 'help' followed by a command name for more
information on commands.

CPLEX> Logfile 'cplex.log' closed.
Logfile 'C:\Users\llavin\Desktop\test826\logs\tmp913l6cff.cplex.log' open.
CPLEX> New value for parallel optimization mode: -1
CPLEX> New value for emphasis for MIP optimization: 1
CPLEX> New value for mixed integer optimality gap tolerance: 0.01
CPLEX> New value for integrality tolerance: 1e-12
CPLEX> New value for deterministic time limit in ticks: 75000
CPLEX> Problem 'C:\Users\llavin\Desktop\test826\logs\tmpgb40hc3r.pyomo.lp' read.
Read time = 0.24 sec. (13.92 ticks)
CPLEX> Problem name         : C:\Users\llavin\Desktop\test826\logs\tmpgb40hc3r.pyomo.lp
Objective sense      : Maximize
Variables            :   53809  [Nneg: 1,  Box: 22004,  Free: 4464,
                                 Binary: 27340]
Objective nonzeros   :    9029
Linear constraints   :  123253  [Less: 41346,  Greater: 59096,  Equal: 22811]
  Nonzeros           :  293217
  RHS nonzeros       :   67491

Variables            : Min LB: -5000.000        Max UB: 1000000.       
Objective nonzeros   : Min   : 0.07500000       Max   : 2500.000       
Linear constraints   :
  Nonzeros           : Min   : 0.07500000       Max   : 1000000.       
  RHS nonzeros       : Min   : 0.07500000       Max   : 1000000.       
CPLEX> CPXPARAM_Parallel                                -1
CPXPARAM_Emphasis_MIP                            1
CPXPARAM_DetTimeLimit                            75000
CPXPARAM_MIP_Tolerances_MIPGap                   0.01
CPXPARAM_MIP_Tolerances_Integrality              9.9999999999999998e-13
Tried aggregator 4 times.
MIP Presolve eliminated 88713 rows and 19016 columns.
MIP Presolve added 3380 rows and 0 columns.
MIP Presolve modified 24813 coefficients.
Aggregator did 13000 substitutions.
Reduced MIP has 24920 rows, 21237 columns, and 71699 nonzeros.
Reduced MIP has 8399 binaries, 0 generals, 0 SOSs, and 0 indicators.
Presolve time = 0.33 sec. (192.71 ticks)
Probing fixed 417 vars, tightened 3922 bounds.
Probing time = 0.06 sec. (19.03 ticks)
Tried aggregator 2 times.
MIP Presolve eliminated 935 rows and 835 columns.
MIP Presolve modified 3033 coefficients.
Aggregator did 24 substitutions.
Reduced MIP has 23961 rows, 20378 columns, and 68917 nonzeros.
Reduced MIP has 7982 binaries, 0 generals, 0 SOSs, and 0 indicators.
Presolve time = 0.11 sec. (89.17 ticks)
Probing fixed 0 vars, tightened 237 bounds.
Probing time = 0.16 sec. (22.72 ticks)
Clique table members: 44883.
MIP emphasis: integer feasibility.
MIP search method: dynamic search.
Parallel mode: opportunistic, using up to 32 threads.
Root relaxation solution time = 0.47 sec. (648.31 ticks)

        Nodes                                         Cuts/
   Node  Left     Objective  IInf  Best Integer    Best Bound    ItCnt     Gap

      0     0     3942.1988   198                   3942.1988     5475         
      0     0     3942.1988     9                    Cuts: 31     5486         
      0     0     3942.1988     8                     Cuts: 2     5488         
      0     0     3942.1988     8                   Covers: 1     5489         
      0    21    infeasible                         Covers: 2     5735         
Elapsed time = 3.66 sec. (1677.42 ticks, tree = 0.02 MB, solutions = 0)
    569   264   -75333.6403    23                   3930.0522    12176         
    915   437   -92301.7725    47                   3930.0522    26769         
   1272   475    infeasible                         3930.0522    30133         
   1559   563    infeasible                         3930.0522    36336         
   1820   682  -353091.3853    52                   3930.0522    41261         
   2047   752    infeasible                         3930.0522    44800         
   2204   765    infeasible                         3930.0522    45321         
   2330   790     3882.6485     6                   3930.0522    46676         
   2438   828    infeasible                         3930.0522    48449         
   2808   829    infeasible                         3930.0522    48417         
Elapsed time = 16.94 sec. (4797.40 ticks, tree = 15.61 MB, solutions = 0)
   3079   825    infeasible                         3930.0522    48558         
   3335   826    infeasible                         3930.0522    48692         
   3586   832     1203.0527     2                   3930.0522    48911         
   4123   937     3840.9770     4                   3930.0522    51136         
   5256   949     3701.9824     1                   3930.0522    52299         
   6502  1266     3897.7990     1                   3930.0522    56648         
   7826  1636     3917.5703     1                   3930.0522    68866         
   9023  2367     3863.9770     2                   3930.0522    98199         
*  9353+ 1300                         3330.3868     3930.0522            18.01%
  10534  1937     3330.3868     6     3330.3868     3930.0522    81131   18.01%
Elapsed time = 43.91 sec. (13656.95 ticks, tree = 24.62 MB, solutions = 1)
  11209  2438     3435.0848     1     3330.3868     3930.0522   102068   18.01%
  11719  2122    infeasible           3330.3868     3930.0522    87687   18.01%
  12068  1391     3929.1542     7     3330.3868     3930.0522   100369   18.01%
  12355  1467     3891.3432     1     3330.3868     3930.0522   100680   18.01%
  12505  2388     3898.3412     6     3330.3868     3930.0522    99867   18.01%
  12726  1329     3877.0895     2     3330.3868     3930.0522   102836   18.01%
  12863  1326     3882.6485     6     3330.3868     3930.0522   105640   18.01%
  12864  2341    infeasible           3330.3868     3929.9025   199916   18.00%
  16751  1040    infeasible           3330.3868     3928.8535   210046   17.97%
  24063  5328     3606.6044     4     3330.3868     3928.8535   241982   17.97%
Elapsed time = 58.55 sec. (23887.54 ticks, tree = 22.45 MB, solutions = 1)
  27871  9233        cutoff           3330.3868     3928.8535   270479   17.97%
  35511 14387    infeasible           3330.3868     3928.8535   309976   17.97%
  42538 18072        cutoff           3330.3868     3928.8535   339178   17.97%
  50565 19586     3894.6710     5     3330.3868     3928.8535   350820   17.97%
  58689 25439     3771.8096     3     3330.3868     3928.8535   401446   17.97%
  67000 29055     3785.7732     5     3330.3868     3928.8535   433251   17.97%
  72559 32127    infeasible           3330.3868     3928.8535   460083   17.97%
  75309 37886        cutoff           3330.3868     3928.5757   527078   17.96%
  80240  1863     3880.3564     2     3330.3868     3928.2563   552979   17.95%
  87836  3070    infeasible           3330.3868     3928.2563   586051   17.95%
Elapsed time = 96.41 sec. (34036.89 ticks, tree = 7.76 MB, solutions = 1)
  95480  2855     3576.8297    11     3330.3868     3928.2563   630255   17.95%
 103390  4070     3587.1770     9     3330.3868     3928.2563   661035   17.95%
 113936  4017    infeasible           3330.3868     3928.2563   717702   17.95%
 124658  4131        cutoff           3330.3868     3928.2563   739551   17.95%
 132645  5616     3457.9811    15     3330.3868     3928.2563   802314   17.95%
 138447  5299        cutoff           3330.3868     3928.2563   839711   17.95%
 145392  5377     3490.6128    10     3330.3868     3928.2563   947625   17.95%
 153818  5450     3384.2885    15     3330.3868     3928.2563   952742   17.95%
 161476  5712     3390.5414    25     3330.3868     3928.2563   986706   17.95%
 168388  3119     3347.5162    30     3330.3868     3879.0908  1163296   16.48%
Elapsed time = 132.16 sec. (43574.63 ticks, tree = 5.08 MB, solutions = 1)
 174256  2815        cutoff           3330.3868     3573.0438  1179697    7.29%
 177513  1821        cutoff           3330.3868     3573.0438  1231712    7.29%
 178322   579        cutoff           3330.3868     3363.6254  1300461    1.00%

GUB cover cuts applied:  1
Cover cuts applied:  9
Implied bound cuts applied:  63
Flow cuts applied:  2
Mixed integer rounding cuts applied:  6
Zero-half cuts applied:  1
Gomory fractional cuts applied:  6

Root node processing (before b&c):
  Real time             =    2.39 sec. (1659.13 ticks)
Parallel b&c, 32 threads:
  Real time             =  130.20 sec. (45485.83 ticks)
  Sync time (average)   =    2.50 sec.
  Wait time (average)   =    0.24 sec.
                          ------------
Total (root+branch&cut) =  132.59 sec. (47144.96 ticks)

Solution pool: 1 solution saved.

MIP - Integer optimal, tolerance (0.01/1e-06):  Objective =  3.3303867587e+03
Current MIP best bound =  3.3636253550e+03 (gap = 33.2386, 1.00%)
Solution time =  132.61 sec.  Iterations = 1333217  Nodes = 178526 (430)
Deterministic time = 47145.11 ticks  (355.52 ticks/sec)

CPLEX> Incumbent solution written to file 'C:\Users\llavin\Desktop\test826\logs\tmpbpxnlts3.cplex.sol'.
CPLEX> NOTE: no warmstart specified for MIP iteration, default behavior is true
NOTE: resolving with all competitive generators using storage-only solution to warmstart
Solving...

Welcome to IBM(R) ILOG(R) CPLEX(R) Interactive Optimizer 12.9.0.0
  with Simplex, Mixed Integer & Barrier Optimizers
5725-A06 5725-A29 5724-Y48 5724-Y49 5724-Y54 5724-Y55 5655-Y21
Copyright IBM Corp. 1988, 2019.  All Rights Reserved.

Type 'help' for a list of available commands.
Type 'help' followed by a command name for more
information on commands.

CPLEX> Logfile 'cplex.log' closed.
Logfile 'C:\Users\llavin\Desktop\test826\logs\tmp7ejb7aid.cplex.log' open.
CPLEX> New value for parallel optimization mode: -1
CPLEX> New value for emphasis for MIP optimization: 1
CPLEX> New value for mixed integer optimality gap tolerance: 0.01
CPLEX> New value for integrality tolerance: 1e-12
CPLEX> New value for deterministic time limit in ticks: 75000
CPLEX> Problem 'C:\Users\llavin\Desktop\test826\logs\tmpk1asx1xq.pyomo.lp' read.
Read time = 0.23 sec. (13.94 ticks)
CPLEX> MIP start file 'C:\Users\llavin\Desktop\test826\logs\tmpubl5y373.cplex.mst' read.
CPLEX> Problem name         : C:\Users\llavin\Desktop\test826\logs\tmpk1asx1xq.pyomo.lp
Objective sense      : Maximize
Variables            :   54529  [Nneg: 1,  Box: 22724,  Free: 4464,
                                 Binary: 27340]
Objective nonzeros   :    9725
Linear constraints   :  123253  [Less: 41346,  Greater: 59096,  Equal: 22811]
  Nonzeros           :  293217
  RHS nonzeros       :   67491

Variables            : Min LB: -5000.000        Max UB: 1000000.       
Objective nonzeros   : Min   : 0.07500000       Max   : 2500.000       
Linear constraints   :
  Nonzeros           : Min   : 0.07500000       Max   : 1000000.       
  RHS nonzeros       : Min   : 0.07500000       Max   : 1000000.       
CPLEX> CPXPARAM_Parallel                                -1
CPXPARAM_Emphasis_MIP                            1
CPXPARAM_DetTimeLimit                            75000
CPXPARAM_MIP_Tolerances_MIPGap                   0.01
CPXPARAM_MIP_Tolerances_Integrality              9.9999999999999998e-13
Warning:  No solution found from 1 MIP starts.
Retaining values of one MIP start for possible repair.
Tried aggregator 4 times.
MIP Presolve eliminated 88713 rows and 19736 columns.
MIP Presolve added 3380 rows and 0 columns.
MIP Presolve modified 24813 coefficients.
Aggregator did 13000 substitutions.
Reduced MIP has 24920 rows, 21237 columns, and 71699 nonzeros.
Reduced MIP has 8399 binaries, 0 generals, 0 SOSs, and 0 indicators.
Presolve time = 0.31 sec. (193.12 ticks)
Probing fixed 417 vars, tightened 3922 bounds.
Probing time = 0.08 sec. (19.03 ticks)
Tried aggregator 2 times.
MIP Presolve eliminated 935 rows and 835 columns.
MIP Presolve modified 3033 coefficients.
Aggregator did 24 substitutions.
Reduced MIP has 23961 rows, 20378 columns, and 68917 nonzeros.
Reduced MIP has 7982 binaries, 0 generals, 0 SOSs, and 0 indicators.
Presolve time = 0.11 sec. (89.17 ticks)
Probing fixed 0 vars, tightened 237 bounds.
Probing time = 0.14 sec. (22.72 ticks)
Clique table members: 44883.
MIP emphasis: integer feasibility.
MIP search method: dynamic search.
Parallel mode: opportunistic, using up to 32 threads.
Root relaxation solution time = 0.47 sec. (679.46 ticks)

        Nodes                                         Cuts/
   Node  Left     Objective  IInf  Best Integer    Best Bound    ItCnt     Gap

      0     0    59165.9924   208                  59165.9924     5548         
      0     0    59093.0531    85                   Cuts: 102     5652         
      0     0    58793.4625    84                    Cuts: 70     5738         
      0     0    58688.2330    74                    Cuts: 46     5771         
Repair heuristic found nothing.
      0    22    52704.1437    42                    Cuts: 19     6126         
Elapsed time = 3.84 sec. (1756.13 ticks, tree = 0.02 MB, solutions = 0)
    648   512    57023.8279    37                  58406.9070    12382         
   1054   917    55653.9472    40                  58406.9070    21876         
   1628  1047    42748.7953    41                  58406.9070    27556         
   2232  1499    50208.2529    17                  58406.9070    44268         
   2846  2021    45323.6860    40                  58406.9070    61786         
   3451  2287    31827.6095    36                  58406.9070    69807         
   4131  2627    infeasible                        58406.9070    82328         
*  4307+ 1147                        55606.2574    58406.9070             5.04%
   5044   998    55702.2834     7    55606.2574    58406.9070   103944    5.04%
   8417  2191    56075.3899    49    55606.2574    58406.9070   126285    5.04%
Elapsed time = 18.30 sec. (4692.57 ticks, tree = 19.47 MB, solutions = 2)
   8499  2744    infeasible          55606.2574    58227.2556   142322    4.71%
   9696   499    55687.8614    28    55606.2574    58227.2556   150657    4.71%
  13175  1494    55798.0727    43    55606.2574    57437.6367   175640    3.29%
  15714  2054    56258.6335    68    55606.2574    57437.6367   184971    3.29%

GUB cover cuts applied:  1
Cover cuts applied:  14
Implied bound cuts applied:  46
Flow cuts applied:  109
Mixed integer rounding cuts applied:  10
Lift and project cuts applied:  1
Gomory fractional cuts applied:  11

Root node processing (before b&c):
  Real time             =    2.47 sec. (1719.06 ticks)
Parallel b&c, 32 threads:
  Real time             =   30.16 sec. (7978.99 ticks)
  Sync time (average)   =    3.10 sec.
  Wait time (average)   =    0.19 sec.
                          ------------
Total (root+branch&cut) =   32.63 sec. (9698.04 ticks)

Solution pool: 2 solutions saved.

MIP - Integer optimal, tolerance (0.01/1e-06):  Objective =  5.5606257441e+04
Current MIP best bound =  5.6162242101e+04 (gap = 555.985, 1.00%)
Solution time =   32.66 sec.  Iterations = 196617  Nodes = 15788 (2411)
Deterministic time = 9698.20 ticks  (296.97 ticks/sec)

CPLEX> Incumbent solution written to file 'C:\Users\llavin\Desktop\test826\logs\tmpm371lzgs.cplex.sol'.
CPLEX> Exporting results... 
